% File represents an instance of a Composite Structure problem to be solved by a CP framework
% Created on 2025-03-26 10:41:36.436
T = 56;
n = 25;
m = 40;
edges = [(2, 1),
(6, 7),
(12, 11),
(17, 16),
(22, 21),
(2, 3),
(8, 7),
(13, 12),
(17, 18),
(22, 23),
(4, 3),
(9, 8),
(14, 13),
(18, 19),
(23, 24),
(5, 4),
(10, 9),
(14, 15),
(19, 20),
(25, 24),
(6, 1),
(6, 11),
(16, 11),
(21, 16),
(2, 7),
(12, 7),
(17, 12),
(22, 17),
(8, 3),
(13, 8),
(13, 18),
(23, 18),
(9, 4),
(14, 9),
(14, 19),
(19, 24),
(10, 5),
(10, 15),
(15, 20),
(25, 20)];
counts = [|10, 12, 10, 6,
|10, 18, 10, 6,
|10, 14, 10, 4,
|10, 16, 10, 6,
|10, 16, 10, 10,
|10, 18, 10, 6,
|10, 18, 10, 4,
|10, 20, 10, 4,
|10, 20, 10, 6,
|10, 20, 10, 12,
|10, 16, 10, 6,
|10, 20, 10, 6,
|10, 22, 10, 8,
|10, 24, 10, 8,
|10, 20, 10, 8,
|10, 16, 10, 12,
|10, 20, 10, 12,
|10, 20, 10, 8,
|10, 18, 10, 8,
|10, 18, 10, 6,
|10, 20, 10, 12,
|10, 22, 10, 14,
|10, 22, 10, 8,
|10, 18, 10, 6,
|12, 18, 12, 6|];
